
******************************************************************************
This program contains Ipopt, a library for large-scale nonlinear optimization.
 Ipopt is released as open source code under the Eclipse Public License (EPL).
         For more information visit http://projects.coin-or.org/Ipopt
******************************************************************************

This is Ipopt version 3.12.6, running with linear solver ma57.

Number of nonzeros in equality constraint Jacobian...:   125000
Number of nonzeros in inequality constraint Jacobian.:        0
Number of nonzeros in Lagrangian Hessian.............:  3252525

Reallocating memory for MA57: lfact (33093902)
Total number of variables............................:     2550
                     variables with only lower bounds:        0
                variables with lower and upper bounds:        0
                     variables with only upper bounds:        0
Total number of equality constraints.................:     1275
Total number of inequality constraints...............:        0
        inequality constraints with only lower bounds:        0
   inequality constraints with lower and upper bounds:        0
        inequality constraints with only upper bounds:        0

iter    objective    inf_pr   inf_du lg(mu)  ||d||  lg(rg) alpha_du alpha_pr  ls
   0  9.9000000e+01 0.00e+00 2.00e+00  -1.0 0.00e+00    -  0.00e+00 0.00e+00   0
   1  9.7058439e+01 1.20e-34 1.96e+00  -1.0 1.96e-02   2.0 1.00e+00 1.00e+00f  1
   2  9.1771840e+01 6.68e-34 1.85e+00  -1.0 5.55e-02   1.5 1.00e+00 1.00e+00f  1
   3  7.9718069e+01 7.79e-33 1.57e+00  -1.0 1.41e-01   1.0 1.00e+00 1.00e+00f  1
   4  6.1952466e+01 6.01e-32 1.02e+00  -1.0 2.75e-01   0.6 1.00e+00 1.00e+00f  1
   5  5.7957407e+01 8.47e-33 8.47e-01  -1.0 8.57e-02   1.0 1.00e+00 1.00e+00f  1
   6  5.2466413e+01 3.31e-32 5.27e-01  -1.7 1.60e-01   0.5 1.00e+00 1.00e+00f  1
   7  5.1299409e+01 1.23e-32 4.29e-01  -1.7 4.89e-02   0.9 1.00e+00 1.00e+00f  1
   8  4.9811376e+01 3.70e-32 2.55e-01  -1.7 8.71e-02   0.5 1.00e+00 1.00e+00f  1
   9  4.9514095e+01 2.95e-32 2.03e-01  -1.7 2.60e-02   0.9 1.00e+00 1.00e+00f  1
iter    objective    inf_pr   inf_du lg(mu)  ||d||  lg(rg) alpha_du alpha_pr  ls
  10  4.9164306e+01 5.61e-28 1.15e-01  -1.7 4.41e-02   0.4 1.00e+00 1.00e+00f  1
  11  4.9098992e+01 5.68e-31 8.90e-02  -2.5 1.28e-02   0.8 1.00e+00 1.00e+00f  1
  12  4.9028461e+01 7.34e-29 4.77e-02  -2.5 2.06e-02   0.4 1.00e+00 1.00e+00f  1
  13  4.9016227e+01 3.44e-29 3.60e-02  -2.5 5.84e-03   0.8 1.00e+00 1.00e+00f  1
  14  4.9004168e+01 1.30e-26 1.83e-02  -2.5 8.88e-03   0.3 1.00e+00 1.00e+00f  1
  15  4.9002237e+01 3.16e-26 1.34e-02  -3.8 2.44e-03   0.7 1.00e+00 1.00e+00f  1
  16  4.9001731e+01 4.21e-26 1.18e-02  -3.8 8.05e-04   1.2 1.00e+00 1.00e+00f  1
  17  4.9000870e+01 1.19e-25 8.34e-03  -3.8 1.71e-03   0.7 1.00e+00 1.00e+00f  1
  18  4.9000653e+01 1.65e-25 7.23e-03  -3.8 5.57e-04   1.1 1.00e+00 1.00e+00f  1
  19  4.9000306e+01 5.55e-25 4.95e-03  -3.8 1.14e-03   0.6 1.00e+00 1.00e+00f  1
iter    objective    inf_pr   inf_du lg(mu)  ||d||  lg(rg) alpha_du alpha_pr  ls
  20  4.9000222e+01 8.06e-25 4.22e-03  -3.8 3.65e-04   1.1 1.00e+00 1.00e+00f  1
  21  4.9000096e+01 3.38e-24 2.77e-03  -3.8 7.21e-04   0.6 1.00e+00 1.00e+00f  1
  22  4.9000067e+01 5.18e-24 2.32e-03  -3.8 2.26e-04   1.0 1.00e+00 1.00e+00f  1
  23  4.9000027e+01 2.88e-23 1.47e-03  -3.8 4.28e-04   0.5 1.00e+00 1.00e+00f  1
  24  4.9000018e+01 4.68e-23 1.20e-03  -5.7 1.32e-04   1.0 1.00e+00 1.00e+00f  1
  25  4.9000007e+01 3.78e-22 7.25e-04  -5.7 2.38e-04   0.5 1.00e+00 1.00e+00f  1
  26  4.9000004e+01 6.63e-22 5.82e-04  -5.7 7.17e-05   0.9 1.00e+00 1.00e+00f  1

Number of Iterations....: 26

                                   (scaled)                 (unscaled)
Objective...............:   4.9000004229225915e+01    4.9000004229225915e+01
Dual infeasibility......:   5.8166840428969225e-04    5.8166840428969225e-04
Constraint violation....:   6.6276497370068810e-22    6.6276497370068810e-22
Complementarity.........:   0.0000000000000000e+00    0.0000000000000000e+00
Overall NLP error.......:   5.8166840428969225e-04    5.8166840428969225e-04


Number of objective function evaluations             = 27
Number of objective gradient evaluations             = 27
Number of equality constraint evaluations            = 27
Number of inequality constraint evaluations          = 0
Number of equality constraint Jacobian evaluations   = 27
Number of inequality constraint Jacobian evaluations = 0
Number of Lagrangian Hessian evaluations             = 26
Total CPU secs in IPOPT (w/o function evaluations)   =    298.277
Total CPU secs in NLP function evaluations           =      8.440

EXIT: Maximum CPU time exceeded.
Note: The following floating-point exceptions are signalling: IEEE_UNDERFLOW_FLAG IEEE_DENORMAL

************************ CUTEst statistics ************************


 Package used            :  IPOPT
 Problem                 :  EIGENBCO  
 # variables             =            2550
 # constraints           =            1275
 # objective functions   =        0.5500000E+02
 # objective gradients   =        0.2800000E+02
 # objective Hessians    =        0.2700000E+02
 # Hessian-vector prdct  =        0.0000000E+00
 # constraints functions =        0.5600000E+02
 # constraints gradients =        0.2900000E+02
 # constraints Hessians  =        0.2700000E+02
 Exit code               =              -4
 Final f                 =   0.0000000E+00
 Set up time             =            0.86 seconds
 Solve time              =          499.33 seconds


******************************************************************

System Time =     143.0469970703 s.
